Problem:    
Rows:       248
Columns:    89 (72 integer, 72 binary)
Non-zeros:  820
Status:     INTEGER OPTIMAL
Objective:  value = 104.955169 (MINimum)

   No.   Row name        Activity     Lower bound   Upper bound
------ ------------    ------------- ------------- -------------
     1 r.5                   104.955             0               
     2 r.6                  -3.53457      -1985.42               
     3 r.7                   2104.96             0               
     4 r.8                  -1973.04      -1987.86               
     5 r.9                   2104.96             0               
     6 r.10                 -1948.38      -1984.78               
     7 r.11                  104.955             0               
     8 r.12                  4.60432      -1987.51               
     9 r.13                  104.955             0               
    10 r.14                  25.6721      -1973.29               
    11 r.15                  2104.96             0               
    12 r.16                 -1953.38      -1980.34               
    13 r.17                  2104.96             0               
    14 r.18                 -1976.83       -1986.3               
    15 r.19                  104.955             0               
    16 r.20                 -1884.79      -1989.75               
    17 r.21                  2104.96             0               
    18 r.22                  -1963.6      -1986.77               
    19 r.23                  104.955             0               
    20 r.24                  14.8228      -1989.78               
    21 r.25                  104.955             0               
    22 r.26                 -1857.87      -1962.82               
    23 r.27                  2104.96             0               
    24 r.28                 -1895.04      -1978.59               
    25 r.29                  2104.96             0               
    26 r.30                 -1895.04      -1962.85               
    27 r.31                  104.955             0               
    28 r.32                  14.8228      -1978.34               
    29 r.33                  2104.96             0               
    30 r.34                  -1999.5       -1999.5               
    31 r.35                  104.955             0               
    32 r.36                 -1995.06      -1995.06               
    33 r.37                        1             1             = 
    34 r.38                        1             1             = 
    35 r.39                        1             1             = 
    36 r.40                        1             1             = 
    37 r.41                        1             1             = 
    38 r.42                        1             1             = 
    39 r.43                        1             1             = 
    40 r.44                        1             1             = 
    41 r.45                  55.1529       15.2153               
    42 r.46                 -55.1529      -1985.42               
    43 r.47                  1977.65       12.4885               
    44 r.48                 -1977.65      -1987.86               
    45 r.49                  29.2067       26.7067               
    46 r.50                 -26.7067      -1985.42               
    47 r.51                  19.6601       19.6601               
    48 r.52                 -24.6601      -1987.86               
    49 r.53                  26.7067       13.6987               
    50 r.54                 -26.7067      -1985.42               
    51 r.55                  88.2513       10.2543               
    52 r.56                 -88.2513      -1987.86               
    53 r.57                  39.9376       13.2309               
    54 r.58                 -39.9376      -1985.42               
    55 r.59                  1987.86       10.2185               
    56 r.60                 -1987.86      -1987.86               
    57 r.61                 -1854.33      -1946.63               
    58 r.62                 -1891.51      -1946.21               
    59 r.63                 -1884.83      -1946.63               
    60 r.64                    -1922      -1946.21               
    61 r.65                   108.49       37.1469               
    62 r.66                  -108.49      -1985.42               
    63 r.67                  1987.86        21.665               
    64 r.68                 -1987.86      -1987.86               
    65 r.69                 -4.03201      -1982.92               
    66 r.70                 -1973.54      -1982.86               
    67 r.71                  1991.52      -1982.92               
    68 r.72                   22.014      -1982.86               
    69 r.73                  1944.85       14.5826               
    70 r.74                 -1944.85      -1984.78               
    71 r.75                  22.3538       12.1354               
    72 r.76                 -22.3538      -1987.51               
    73 r.77                  1974.05       26.7067               
    74 r.78                 -1971.55      -1984.78               
    75 r.79                   42.014       19.6601               
    76 r.80                  -47.014      -1987.51               
    77 r.81                  1971.55       13.6987               
    78 r.82                 -1971.55      -1984.78               
    79 r.83                  110.605       10.2543               
    80 r.84                 -110.605      -1987.51               
    81 r.85                  1984.78       13.2309               
    82 r.86                 -1984.78      -1984.78               
    83 r.87                  10.2185       10.2185               
    84 r.88                 -10.2185      -1987.51               
    85 r.89                  90.5127       37.1759               
    86 r.90                 -90.5127      -1984.78               
    87 r.91                  100.351       21.4122               
    88 r.92                 -100.351      -1987.51               
    89 r.93                 -1946.66      -1946.66               
    90 r.94                 -36.7955      -1945.95               
    91 r.95                 -1899.65      -1946.66               
    92 r.96                  10.2185      -1945.95               
    93 r.97                 -1948.88      -1982.28               
    94 r.98                  4.10688      -1982.51               
    95 r.99                  46.6741      -1982.28               
    96 r.100                 1999.66      -1982.51               
    97 r.101                 1973.29       14.5826               
    98 r.102                -1973.29      -1973.29               
    99 r.103                 1975.34       12.1354               
   100 r.104                -1975.34      -1980.34               
   101 r.105                 28.4461       15.2153               
   102 r.106                -28.4461      -1973.29               
   103 r.107                 1952.99       12.4885               
   104 r.108                -1952.99      -1980.34               
   105 r.109                       0      -1970.79               
   106 r.110                -1971.55      -1975.34               
   107 r.111                 1907.96      -1970.79               
   108 r.112                -63.5912      -1975.34               
   109 r.113                 13.2308       13.2309               
   110 r.114                -13.2308      -1973.29               
   111 r.115                  1963.2       10.2185               
   112 r.116                 -1963.2      -1980.34               
   113 r.117                 118.959       37.1759               
   114 r.118                -118.959      -1973.29               
   115 r.119                 53.3369       21.4122               
   116 r.120                -53.3369      -1980.34               
   117 r.121                -1918.22      -1946.66               
   118 r.122                -8.34937      -1945.95               
   119 r.123                -1946.66      -1946.66               
   120 r.124                -36.7955      -1945.95               
   121 r.125                 22.6747      -1970.79               
   122 r.126                -1948.88      -1975.34               
   123 r.127                 2018.23      -1970.79               
   124 r.128                 46.6741      -1975.34               
   125 r.129                 1973.29       14.5826               
   126 r.130                -1973.29       -1986.3               
   127 r.131                 1911.75       12.1354               
   128 r.132                -1911.75      -1989.75               
   129 r.133                 28.4461       15.2153               
   130 r.134                -28.4461       -1986.3               
   131 r.135                 1889.39       12.4885               
   132 r.136                -1889.39      -1989.75               
   133 r.137                       0      -1970.79               
   134 r.138                -1971.55      -1975.34               
   135 r.139                 1907.96      -1970.79               
   136 r.140                -63.5912      -1975.34               
   137 r.141                 13.2308       13.2309               
   138 r.142                -13.2308       -1986.3               
   139 r.143                 1899.61       10.2185               
   140 r.144                -1899.61      -1989.75               
   141 r.145                 118.959       37.1759               
   142 r.146                -118.959       -1986.3               
   143 r.147                 1989.75       21.4122               
   144 r.148                -1989.75      -1989.75               
   145 r.149                -1918.22      -1946.66               
   146 r.150                -8.34937      -1945.95               
   147 r.151                -10.2543      -1946.66               
   148 r.152                 1899.61      -1945.95               
   149 r.153                -1977.33      -1977.33               
   150 r.154                -1885.29      -1971.79               
   151 r.155                 18.2279      -1977.33               
   152 r.156                 110.265      -1971.79               
   153 r.157                 1960.06       14.5826               
   154 r.158                -1960.06      -1986.77               
   155 r.159                 12.1354       12.1354               
   156 r.160                -12.1354      -1989.78               
   157 r.161                 15.2153       15.2153               
   158 r.162                -15.2153      -1986.77               
   159 r.163                 1989.78       12.4885               
   160 r.164                -1989.78      -1989.78               
   161 r.165                 1989.27       26.7067               
   162 r.166                -1986.77      -1986.77               
   163 r.167                 31.7955       19.6601               
   164 r.168                -36.7955      -1989.78               
   165 r.169                 1986.77       13.6987               
   166 r.170                -1986.77      -1986.77               
   167 r.171                 100.387       10.2543               
   168 r.172                -100.387      -1989.78               
   169 r.173                -1894.27      -1946.63               
   170 r.174                -1931.45      -1946.21               
   171 r.175                -1872.69      -1946.63               
   172 r.176                -1909.87      -1946.21               
   173 r.177                -1931.45      -1946.66               
   174 r.178                -21.5802      -1945.95               
   175 r.179                -1909.87      -1946.66               
   176 r.180                       0      -1945.95               
   177 r.181                -1964.09      -1981.77               
   178 r.182                 14.3253      -1979.78               
   179 r.183                 31.4588      -1981.77               
   180 r.184                 2009.88      -1979.78               
   181 r.185                -1854.33      -1946.63               
   182 r.186                -1891.51      -1946.21               
   183 r.187                -1884.83      -1946.63               
   184 r.188                   -1922      -1946.21               
   185 r.189                 1909.49       15.2153               
   186 r.190                -1909.49      -1962.82               
   187 r.191                 1899.65       12.4885               
   188 r.192                -1899.65      -1978.59               
   189 r.193                 1883.54       26.7067               
   190 r.194                -1881.04      -1962.82               
   191 r.195                 1941.66       19.6601               
   192 r.196                -1946.66      -1978.59               
   193 r.197                 1881.04       13.6987               
   194 r.198                -1881.04      -1962.82               
   195 r.199                 10.2543       10.2543               
   196 r.200                -10.2543      -1978.59               
   197 r.201                -1894.27      -1946.63               
   198 r.202                -1931.45      -1946.21               
   199 r.203                -1872.69      -1946.63               
   200 r.204                -1909.87      -1946.21               
   201 r.205                 1962.82       37.1469               
   202 r.206                -1962.82      -1962.82               
   203 r.207                 1909.87        21.665               
   204 r.208                -1909.87      -1978.59               
   205 r.209                 1891.51       14.5826               
   206 r.210                -1891.51      -1962.85               
   207 r.211                 12.1354       12.1354               
   208 r.212                -12.1354      -1978.34               
   209 r.213                -1946.66      -1946.66               
   210 r.214                -36.7955      -1945.95               
   211 r.215                -1899.65      -1946.66               
   212 r.216                 10.2185      -1945.95               
   213 r.217                -1918.22      -1946.66               
   214 r.218                -8.34937      -1945.95               
   215 r.219                -1946.66      -1946.66               
   216 r.220                -36.7955      -1945.95               
   217 r.221                -1918.22      -1946.66               
   218 r.222                -8.34937      -1945.95               
   219 r.223                -10.2543      -1946.66               
   220 r.224                 1899.61      -1945.95               
   221 r.225                -1931.45      -1946.66               
   222 r.226                -21.5802      -1945.95               
   223 r.227                -1909.87      -1946.66               
   224 r.228                       0      -1945.95               
   225 r.229                 37.1759       37.1759               
   226 r.230                -37.1759      -1962.85               
   227 r.231                 90.1324       21.4122               
   228 r.232                -90.1324      -1978.34               
   229 r.233                -4.03201      -1982.92               
   230 r.234                -1973.54      -1982.86               
   231 r.235                 1991.52      -1982.92               
   232 r.236                  22.014      -1982.86               
   233 r.237                -1948.88      -1982.28               
   234 r.238                 4.10688      -1982.51               
   235 r.239                 46.6741      -1982.28               
   236 r.240                 1999.66      -1982.51               
   237 r.241                 22.6747      -1970.79               
   238 r.242                -1948.88      -1975.34               
   239 r.243                 2018.23      -1970.79               
   240 r.244                 46.6741      -1975.34               
   241 r.245                -1977.33      -1977.33               
   242 r.246                -1885.29      -1971.79               
   243 r.247                 18.2279      -1977.33               
   244 r.248                 110.265      -1971.79               
   245 r.249                -1964.09      -1981.77               
   246 r.250                 14.3253      -1979.78               
   247 r.251                 31.4588      -1981.77               
   248 r.252                 2009.88      -1979.78               

   No. Column name       Activity     Lower bound   Upper bound
------ ------------    ------------- ------------- -------------
     1 tt                    104.955             0               
     2 s_1_1        *              0             0             1 
     3 t_1_1                  108.49             0               
     4 s_1_6        *              0             0             1 
     5 s_2_1        *              1             0             1 
     6 t_2_1                  77.997             0               
     7 s_2_6        *              1             0             1 
     8 s_1_2        *              1             0             1 
     9 t_1_2                 53.3369             0               
    10 s_1_7        *              1             0             1 
    11 s_2_2        *              0             0             1 
    12 t_2_2                 100.351             0               
    13 s_2_7        *              0             0             1 
    14 s_1_3        *              0             0             1 
    15 t_1_3                  81.783             0               
    16 s_2_3        *              1             0             1 
    17 t_2_3                 53.3369             0               
    18 s_1_4        *              1             0             1 
    19 t_1_4                  81.783             0               
    20 s_2_4        *              0             0             1 
    21 t_2_4                 1989.75             0               
    22 s_1_5        *              1             0             1 
    23 t_1_5                 68.5522             0               
    24 s_2_5        *              0             0             1 
    25 t_2_5                 90.1324             0               
    26 t_1_6                 1962.82             0               
    27 t_2_6                       0             0               
    28 t_1_7                       0             0               
    29 t_2_7                 90.1324             0               
    30 s_1_8        *              1             0             1 
    31 t_1_8                 104.458             0               
    32 s_2_8        *              0             0             1 
    33 t_2_8                 2100.01             0               
    34 u_1_1_2      *              0             0             1 
    35 u_2_1_2      *              1             0             1 
    36 u_1_1_3      *              0             0             1 
    37 u_2_1_3      *              0             0             1 
    38 u_1_1_4      *              0             0             1 
    39 u_2_1_4      *              1             0             1 
    40 u_1_1_5      *              0             0             1 
    41 u_2_1_5      *              1             0             1 
    42 u_1_1_7      *              0             0             1 
    43 u_2_1_7      *              1             0             1 
    44 u_1_2_1      *              1             0             1 
    45 u_2_2_1      *              0             0             1 
    46 u_1_2_3      *              1             0             1 
    47 u_2_2_3      *              0             0             1 
    48 u_1_2_4      *              1             0             1 
    49 u_2_2_4      *              1             0             1 
    50 u_1_2_5      *              1             0             1 
    51 u_2_2_5      *              0             0             1 
    52 u_1_2_6      *              1             0             1 
    53 u_2_2_6      *              0             0             1 
    54 u_1_3_1      *              1             0             1 
    55 u_2_3_1      *              1             0             1 
    56 u_1_3_2      *              0             0             1 
    57 u_2_3_2      *              1             0             1 
    58 u_1_3_5      *              0             0             1 
    59 u_2_3_5      *              1             0             1 
    60 u_1_3_6      *              1             0             1 
    61 u_2_3_6      *              0             0             1 
    62 u_1_4_1      *              1             0             1 
    63 u_2_4_1      *              0             0             1 
    64 u_1_4_2      *              0             0             1 
    65 u_2_4_2      *              0             0             1 
    66 u_1_4_5      *              0             0             1 
    67 u_2_4_5      *              0             0             1 
    68 u_1_4_6      *              1             0             1 
    69 u_2_4_6      *              0             0             1 
    70 u_1_5_1      *              1             0             1 
    71 u_2_5_1      *              0             0             1 
    72 u_1_5_2      *              0             0             1 
    73 u_2_5_2      *              1             0             1 
    74 u_1_5_3      *              1             0             1 
    75 u_2_5_3      *              0             0             1 
    76 u_1_5_4      *              1             0             1 
    77 u_2_5_4      *              1             0             1 
    78 u_1_6_2      *              0             0             1 
    79 u_2_6_2      *              1             0             1 
    80 u_1_6_3      *              0             0             1 
    81 u_2_6_3      *              1             0             1 
    82 u_1_6_4      *              0             0             1 
    83 u_2_6_4      *              1             0             1 
    84 u_1_6_7      *              0             0             1 
    85 u_2_6_7      *              1             0             1 
    86 u_1_7_1      *              1             0             1 
    87 u_2_7_1      *              0             0             1 
    88 u_1_7_6      *              1             0             1 
    89 u_2_7_6      *              0             0             1 

Integer feasibility conditions:

KKT.PE: max.abs.err = 4.55e-13 on row 165
        max.rel.err = 1.09e-16 on row 165
        High quality

KKT.PB: max.abs.err = 2.38e-13 on row 109
        max.rel.err = 1.67e-14 on row 109
        High quality

End of output
